(set-logic QF_S)
(declare-fun var0 () String)
(declare-fun var1 () String)
(declare-fun var2 () String)
(declare-fun var3 () Int)
(declare-fun var4 () String)
(declare-fun var5 () Int)
(assert (< (str.to.int var0) (str.indexof var1 var2 var3)))
(assert (str.prefixof var4 var1))
(assert (str.in.re (str.replace var2 var2 var4) (re.+ re.allchar)))
(assert (str.in.re (str.at "D/G!V_6f" var5) (re.+ re.allchar)))
(check-sat)